% clingo version 5.3.0
% Reading from ...rk_instances/benchmark_instance_4-1.lp ...
% Solving...
% Answer: 3
ANSWER
u_piece(1). u_piece(2). u_piece(12). u_piece(16). l_piece(4,3,8). l_piece(15,14,11). l_piece(9,10,13). num_u_pieces(4). num_l_pieces(3).
COST 4
OPTIMUM
% 
% Models         : 3
%   Optimum      : yes
% Optimization   : 4
% Calls          : 1
% Time           : 0.011s (Solving: 0.00s 1st Model: 0.00s Unsat: 0.00s)
% CPU Time       : 0.011s
